6   6   2
2   3   1   17   2   17   3   17   3   4   23   5   23   6   23   
2   3   1   10   2   10   3   10   3   4   27   5   27   6   27   
2   3   1   28   2   28   3   28   3   4   27   5   27   6   27   
2   3   1   23   2   23   3   23   3   4   22   5   22   6   22   
2   3   1   11   2   11   3   11   3   4   16   5   16   6   16   
2   3   1   20   2   20   3   20   3   4   18   5   18   6   18   
